
Gurobi 9.0.1 (linux64) logging started Fri May  1 04:12:37 2020

Gurobi Optimizer version 9.0.1 build v9.0.1rc0 (linux64)
Optimize a model with 3500 rows, 2414 columns and 13804 nonzeros
Model fingerprint: 0xb9361aff
Variable types: 0 continuous, 2414 integer (2366 binary)
Coefficient statistics:
  Matrix range     [1e+00, 1e+01]
  Objective range  [3e+00, 1e+02]
  Bounds range     [1e+00, 1e+00]
  RHS range        [1e+00, 1e+01]

User MIP start produced solution with objective 722 (0.01s)
Loaded user MIP start with objective 722

Presolve removed 2568 rows and 1022 columns
Presolve time: 0.03s
Presolved: 932 rows, 1392 columns, 6048 nonzeros
Variable types: 0 continuous, 1392 integer (1368 binary)

Root relaxation: objective 3.813333e+02, 514 iterations, 0.02 seconds

    Nodes    |    Current Node    |     Objective Bounds      |     Work
 Expl Unexpl |  Obj  Depth IntInf | Incumbent    BestBd   Gap | It/Node Time

     0     0  381.33333    0   39  722.00000  381.33333  47.2%     -    0s
     0     0  486.19048    0   79  722.00000  486.19048  32.7%     -    0s
     0     0  491.60714    0   69  722.00000  491.60714  31.9%     -    0s
     0     0  491.60714    0   68  722.00000  491.60714  31.9%     -    0s
     0     0  514.16667    0   68  722.00000  514.16667  28.8%     -    0s
     0     0  520.00000    0   69  722.00000  520.00000  28.0%     -    0s
     0     0  520.00000    0   69  722.00000  520.00000  28.0%     -    0s
     0     0  520.00000    0   74  722.00000  520.00000  28.0%     -    0s
     0     0  520.00000    0   57  722.00000  520.00000  28.0%     -    0s
     0     0  520.78571    0   62  722.00000  520.78571  27.9%     -    0s
     0     0  520.85185    0   70  722.00000  520.85185  27.9%     -    0s
     0     0  520.87342    0   70  722.00000  520.87342  27.9%     -    0s
     0     0  527.66667    0   62  722.00000  527.66667  26.9%     -    0s
     0     0  527.66667    0   62  722.00000  527.66667  26.9%     -    0s
     0     0  527.66667    0   65  722.00000  527.66667  26.9%     -    0s
     0     0  527.66667    0   66  722.00000  527.66667  26.9%     -    0s
     0     0  527.66667    0   34  722.00000  527.66667  26.9%     -    0s
     0     0  527.66667    0   38  722.00000  527.66667  26.9%     -    0s
     0     0  530.40476    0   45  722.00000  530.40476  26.5%     -    0s
     0     0  530.40476    0   77  722.00000  530.40476  26.5%     -    0s
     0     0  540.33333    0   54  722.00000  540.33333  25.2%     -    0s
     0     0  542.66667    0   64  722.00000  542.66667  24.8%     -    0s
     0     0  542.66667    0   80  722.00000  542.66667  24.8%     -    0s
     0     0  543.00000    0   70  722.00000  543.00000  24.8%     -    0s
     0     0  543.00000    0   72  722.00000  543.00000  24.8%     -    0s
     0     0  544.00000    0   74  722.00000  544.00000  24.7%     -    0s
     0     0  544.00000    0   73  722.00000  544.00000  24.7%     -    0s
     0     0  544.00000    0   67  722.00000  544.00000  24.7%     -    0s
     0     0  544.00000    0   72  722.00000  544.00000  24.7%     -    0s
     0     0  544.00000    0   28  722.00000  544.00000  24.7%     -    0s
     0     0  544.00000    0   37  722.00000  544.00000  24.7%     -    0s
     0     0  544.00000    0   28  722.00000  544.00000  24.7%     -    0s
     0     0  544.00000    0   28  722.00000  544.00000  24.7%     -    0s
     0     2  544.00000    0   28  722.00000  544.00000  24.7%     -    0s
H  491   401                     718.0000000  544.00000  24.2%  14.6    2s
   554   453  593.00000   22   97  718.00000  544.05385  24.2%  29.9    5s
H  915   638                     717.0000000  544.05385  24.1%  28.3    8s
  1105   736  562.00000   49   81  717.00000  544.05385  24.1%  28.4   10s
H 1186   353                     599.0000000  544.05385  9.17%  26.9   10s
H 1323   253                     570.0000000  544.21212  4.52%  25.0   11s
  2792   517     cutoff   21       570.00000  554.00000  2.81%  25.7   15s
  3754   803  561.50050   48  207  570.00000  561.00000  1.58%  32.4   20s
  4100   808  561.02860   39  195  570.00000  561.00000  1.58%  41.4   25s
H 4154   415                     566.0000000  561.00000  0.88%  42.9   25s
H 4272     0                     561.0000000  561.00000  0.00%  46.4   28s

Cutting planes:
  Learned: 9
  Gomory: 18
  Cover: 46
  Implied bound: 372
  MIR: 23
  Flow cover: 95
  GUB cover: 6
  Inf proof: 4
  Zero half: 18
  RLT: 2
  Relax-and-lift: 5

Explored 4273 nodes (201963 simplex iterations) in 28.46 seconds
Thread count was 1 (of 40 available processors)

Solution count 7: 561 566 570 ... 722

Optimal solution found (tolerance 1.00e-04)
Best objective 5.610000000000e+02, best bound 5.610000000000e+02, gap 0.0000%

User-callback calls 18175, time in user-callback 0.02 sec
